Gurobi Optimizer version 9.1.2 build v9.1.2rc0 (linux64)
Thread count: 36 physical cores, 72 logical processors, using up to 32 threads
Optimize a model with 12 rows, 57 columns and 590 nonzeros
Model fingerprint: 0xf32eec78
Model has 47 quadratic constraints
Coefficient statistics:
  Matrix range     [2e-05, 3e+00]
  QMatrix range    [1e+00, 1e+00]
  QLMatrix range   [1e+00, 1e+00]
  Objective range  [8e-03, 7e-01]
  Bounds range     [1e+00, 1e+00]
  RHS range        [1e+00, 1e+00]
Presolve removed 9 rows and 0 columns

Continuous model is non-convex -- solving as a MIP.

Presolve removed 9 rows and 0 columns
Presolve time: 0.00s
Presolved: 189 rows, 57 columns, 443 nonzeros
Presolved model has 47 bilinear constraint(s)
Variable types: 57 continuous, 0 integer (0 binary)

Root relaxation: objective -1.743721e+00, 44 iterations, 0.00 seconds

    Nodes    |    Current Node    |     Objective Bounds      |     Work
 Expl Unexpl |  Obj  Depth IntInf | Incumbent    BestBd   Gap | It/Node Time

     0     0   -1.74372    0   38          -   -1.74372      -     -    0s
H    0     0                       0.6147548   -1.74372   384%     -    0s
     0     0   -1.64739    0    1    0.61475   -1.64739   368%     -    0s
H    0     0                      -1.6450460   -1.64739  0.14%     -    0s
     0     0     cutoff    0        -1.64505   -1.64505  0.00%     -    0s

Cutting planes:
  RLT: 25
  BQP: 3

Explored 1 nodes (76 simplex iterations) in 0.01 seconds
Thread count was 32 (of 72 available processors)

Solution count 2: -1.64505 0.614755 
No other solutions better than -1.64505

Optimal solution found (tolerance 1.00e-04)
Best objective -1.645045978473e+00, best bound -1.645045978473e+00, gap 0.0000%

User-callback calls 77, time in user-callback 0.00 sec
Gurobi Optimizer version 9.1.2 build v9.1.2rc0 (linux64)
Thread count: 36 physical cores, 72 logical processors, using up to 32 threads
Optimize a model with 60 rows, 312 columns and 16100 nonzeros
Model fingerprint: 0xd792bc68
Model has 262 quadratic constraints
Coefficient statistics:
  Matrix range     [4e-07, 7e+00]
  QMatrix range    [1e+00, 1e+00]
  QLMatrix range   [1e+00, 1e+00]
  Objective range  [4e-03, 1e+00]
  Bounds range     [1e+00, 1e+00]
  RHS range        [1e+00, 1e+00]
Presolve removed 16 rows and 0 columns

Continuous model is non-convex -- solving as a MIP.

Presolve removed 16 rows and 0 columns
Presolve time: 0.01s
Presolved: 1080 rows, 312 columns, 13137 nonzeros
Presolved model has 262 bilinear constraint(s)
Variable types: 312 continuous, 0 integer (0 binary)

Root relaxation: objective -2.462724e+01, 304 iterations, 0.01 seconds

    Nodes    |    Current Node    |     Objective Bounds      |     Work
 Expl Unexpl |  Obj  Depth IntInf | Incumbent    BestBd   Gap | It/Node Time

     0     0  -24.62724    0   95          -  -24.62724      -     -    0s
     0     0  -23.58929    0   73          -  -23.58929      -     -    0s
     0     0  -23.55534    0   74          -  -23.55534      -     -    0s
     0     0  -23.48463    0   67          -  -23.48463      -     -    0s
     0     0  -23.47905    0   67          -  -23.47905      -     -    0s
     0     0  -23.47843    0   67          -  -23.47843      -     -    0s
     0     0  -23.47761    0   67          -  -23.47761      -     -    0s
     0     0  -23.47758    0   67          -  -23.47758      -     -    0s
     0     0  -23.47739    0   67          -  -23.47739      -     -    0s
     0     2  -23.47739    0   67          -  -23.47739      -     -    0s
* 2218  1972              59     -22.4061048  -22.90946  2.25%  37.7    1s
* 2975  1946              52     -22.4062238  -22.73545  1.47%  36.4    1s
* 2981  1946              56     -22.4062511  -22.73545  1.47%  36.3    1s
* 3093  1965              54     -22.4242921  -22.73545  1.39%  36.2    1s
* 4859  1145              62     -22.4283264  -22.73545  1.37%  38.6    2s
* 4971  1079              62     -22.4284114  -22.73545  1.37%  38.3    2s
* 4972  1026              62     -22.4284131  -22.73545  1.37%  38.3    2s
* 4974   974              62     -22.4284750  -22.73545  1.37%  38.3    2s
* 5074   937              62     -22.4284762  -22.73545  1.37%  38.2    3s
* 5373   934              52     -22.4286134  -22.73545  1.37%  37.8    3s
* 5375   891              53     -22.4286613  -22.73545  1.37%  37.8    3s
* 5623   915              56     -22.4287992  -22.73545  1.37%  37.4    3s
* 6026  1078              52     -22.4288063  -22.73545  1.37%  36.4    3s
* 6029  1078              52     -22.4288110  -22.73545  1.37%  36.4    3s
* 6081  1078              56     -22.4291992  -22.73545  1.37%  36.4    3s
* 6855  1386              65     -22.4588925  -22.73545  1.23%  35.8    3s
* 7585  1514              65     -22.4870387  -22.73545  1.10%  34.8    3s
* 7642  1544              64     -22.4870992  -22.73545  1.10%  34.9    3s
* 7646  1544              64     -22.4871036  -22.73545  1.10%  34.8    3s
* 8436  1644              57     -22.4960365  -22.73545  1.06%  34.4    4s
*10059  1731              59     -22.4962872  -22.73545  1.06%  33.5    4s
*10060  1731              59     -22.4964224  -22.73545  1.06%  33.5    4s
*10061  1731              58     -22.4964558  -22.73545  1.06%  33.5    4s
*10280  1735              60     -22.4967262  -22.73545  1.06%  33.4    4s
*10285  1735              60     -22.4968339  -22.73545  1.06%  33.4    4s
*10577  1719              57     -22.4981162  -22.73545  1.05%  33.3    4s
*10578  1719              58     -22.4984083  -22.73545  1.05%  33.3    4s
*10579  1719              58     -22.4984085  -22.73545  1.05%  33.3    4s
 11220  1708     cutoff   28       -22.49841  -22.68366  0.82%  33.0    5s
*12412  1779              55     -22.4984972  -22.65090  0.68%  32.4    5s
*12713  1779              58     -22.4985553  -22.65090  0.68%  32.3    5s
*13115  1698              65     -22.4989852  -22.62846  0.58%  32.0    5s
*14121  1737              56     -22.4997642  -22.61350  0.51%  31.5    5s
*14125  1737              58     -22.4998157  -22.61350  0.51%  31.5    5s
*15039  1709              59     -22.4998832  -22.59040  0.40%  31.0    5s
*15321  1709              60     -22.4999260  -22.59040  0.40%  30.8    5s
*15663  1764              66     -22.5019210  -22.59040  0.39%  30.5    6s
*15751  1764              70     -22.5058116  -22.59040  0.38%  30.5    6s
*18820  1534              69     -22.5064916  -22.54257  0.16%  29.0    6s
*18822  1534              70     -22.5065237  -22.54257  0.16%  29.0    6s
*18823  1534              70     -22.5065240  -22.54257  0.16%  29.0    6s
*19502  1547              70     -22.5072118  -22.53665  0.13%  28.7    6s
*19503  1547              70     -22.5073027  -22.53665  0.13%  28.6    6s
*21008  1425              67     -22.5073621  -22.52367  0.07%  27.8    6s
*21653  1372              59     -22.5073783  -22.52086  0.06%  27.4    7s
*21762  1372              61     -22.5074843  -22.52086  0.06%  27.3    7s
*21763  1372              61     -22.5074876  -22.52086  0.06%  27.3    7s
*22883  1288              63     -22.5076036  -22.51404  0.03%  26.5    7s
*23224  1137              71     -22.5076322  -22.51296  0.02%  26.3    7s

Explored 25462 nodes (626641 simplex iterations) in 7.51 seconds
Thread count was 32 (of 72 available processors)

Solution count 10: -22.5076 -22.5076 -22.5075 ... -22.5065

Optimal solution found (tolerance 1.00e-04)
Best objective -2.250763215103e+01, best bound -2.250966369064e+01, gap 0.0090%

User-callback calls 51882, time in user-callback 0.01 sec



objective value: -22.507632151031785
objective bound: -22.509663690642668
x_opt: [1.0, 0.8402435109236922, 0.0, 0.20261429676991397, 0.0, 0.0, 1.0, 0.0, 0.0, 0.0, 1.0, 0.0, 1.0, 1.0, 0.3154104086637883, 1.0, 0.0, 1.0, 0.0, 0.0, 0.0, 0.3955349959995507, 0.0, 0.5684328481074324, 0.0, 0.7430371662994298, 0.0, 1.0, 0.0, 0.0, 1.0, 1.0, 0.0, 0.5600282112325448, 1.0, 0.906615161222861, 0.0, 1.0, 0.0, 1.0, 1.0, 0.0, 1.0, 0.0528672755641861, 0.0314802833072124, 0.0, 0.48485148990771465, 0.39591216940284485, 0.3146914342026011, 0.0]
GUROBI solution time: 7.510589122772217




